(set-logic QF_S)
(declare-fun V22 () String )
(declare-fun V59 () String )
(declare-fun V8 () String )
(declare-fun V64 () String )
(declare-fun V15 () String )
(declare-fun V25 () String )
(declare-fun V16 () String )
(declare-fun V20 () String )
(declare-fun V38 () String )
(declare-fun V61 () String )
(declare-fun V32 () String )
(declare-fun V18 () String )
(declare-fun V33 () String )
(declare-fun V62 () String )
(declare-fun V57 () String )
(declare-fun V0 () String )
(declare-fun V10 () String )
(declare-fun V23 () String )
(declare-fun V14 () String )
(declare-fun V54 () String )
(declare-fun V63 () String )
(declare-fun V24 () String )
(declare-fun V55 () String )
(declare-fun V30 () String )
(declare-fun V2 () String )
(declare-fun V1 () String )
(declare-fun V40 () String )
(declare-fun V36 () String )
(declare-fun V46 () String )
(declare-fun V12 () String )
(declare-fun V27 () String )
(declare-fun V6 () String )
(declare-fun V21 () String )
(declare-fun V41 () String )
(declare-fun V7 () String )
(declare-fun V5 () String )
(declare-fun V45 () String )
(declare-fun V13 () String )
(declare-fun V35 () String )
(declare-fun V31 () String )
(declare-fun V52 () String )
(declare-fun V39 () String )
(declare-fun V58 () String )
(declare-fun V26 () String )
(declare-fun V3 () String )
(declare-fun V34 () String )
(declare-fun V51 () String )
(declare-fun V17 () String )
(declare-fun V4 () String )
(declare-fun V11 () String )
(declare-fun V9 () String )
(declare-fun V19 () String )
(declare-fun V50 () String )
(declare-fun V37 () String )
(declare-fun V29 () String )
(declare-fun V49 () String )
(declare-fun V56 () String )
(declare-fun V42 () String )
(declare-fun V44 () String )
(declare-fun V47 () String )
(declare-fun V28 () String )
(declare-fun V43 () String )
(declare-fun V48 () String )
(declare-fun V53 () String )
(declare-fun V60 () String )
(assert (= "" ":" ) )
(assert (= "" V11 ) )
(assert (= "" V46 ) )
(assert (= "&" V10 ) )
(assert (= "/" V0 ) )
(assert (= ":" V16 ) )
(assert (= ";" V1 ) )
(assert (= "=" V6 ) )
(assert (= "?" V11 ) )
(assert (= V28 (str.++ (str.++ V43 V11 ) V44 ) ) )
(assert (= V28 (str.++ (str.++ V30 V5 ) V31 ) ) )
(assert (= V5 (str.++ (str.++ V63 "&" ) V64 ) ) )
(assert (= V5 (str.++ (str.++ V52 ";" ) V53 ) ) )
(assert (= V5 (str.++ (str.++ V2 V3 ) V4 ) ) )
(assert (= V5 (str.++ (str.++ V40 V41 ) V42 ) ) )
(assert (= V3 (str.++ (str.++ V50 "=" ) V51 ) ) )
(assert (= V3 (str.++ (str.++ V37 V38 ) V39 ) ) )
(assert (= V3 (str.++ (str.++ V7 V8 ) V9 ) ) )
(assert (= V8 (str.++ (str.++ V48 "H" ) V49 ) ) )
(assert (= V13 (str.++ (str.++ V56 "@" ) V57 ) ) )
(assert (= V13 (str.++ (str.++ V21 V22 ) V23 ) ) )
(assert (= V13 (str.++ (str.++ V32 V20 ) V33 ) ) )
(assert (= V20 (str.++ (str.++ V45 V46 ) V47 ) ) )
(assert (= V20 (str.++ (str.++ V54 ":" ) V55 ) ) )
(assert (= V20 (str.++ (str.++ V17 V18 ) V19 ) ) )
(assert (= V20 (str.++ (str.++ V34 V35 ) V36 ) ) )
(assert (= V15 (str.++ (str.++ V27 V28 ) V29 ) ) )
(assert (= V15 (str.++ (str.++ V58 "/" ) V59 ) ) )
(assert (= V15 (str.++ (str.++ V12 V13 ) V14 ) ) )
(assert (= V26 (str.++ (str.++ V24 V15 ) V25 ) ) )
(assert (= V26 (str.++ (str.++ V61 "://" ) V62 ) ) )
(assert (= V26 (str.++ "mongodb://" V60 ) ) )
( check-sat )
